
Log started (V11.0.0) Wed Apr 16 17:46:15 2008

Tried aggregator 1 time.
Reduced MIP has 120 rows, 2001 columns, and 4020 nonzeros.
Presolve time =    0.02 sec.
Clique table members: 100.
MIP emphasis: balance optimality and feasibility.
MIP search method: dynamic search.
Parallel mode: none, using 1 thread.
Root relaxation solution time =    0.05 sec.

        Nodes                                         Cuts/
   Node  Left     Objective  IInf  Best Integer     Best Node    ItCnt     Gap

*     0+    0                        15193.0000      524.1838      287   96.55%
*     0+    0                          568.0000      524.1838      287    7.71%
      0     0      525.0000    42      568.0000      Fract: 9      319    7.57%
*     0+    0                          546.0000      525.0000      319    3.85%
      0     0      525.0000    43      546.0000     Covers: 2      322    3.85%
      0     0      525.0000    46      546.0000     Covers: 2      354    3.85%
*     0+    0                          544.0000      525.0000      354    3.49%
      0     2      525.0000    46      544.0000      525.0000      354    3.49%
    100    86      529.0000    36      544.0000      525.0000     2671    3.49%
    200   147      535.0000    37      544.0000      525.0000     5358    3.49%
    300   218      526.0000    38      544.0000      525.0000     7103    3.49%
    400   302      529.0000    35      544.0000      525.0000     9049    3.49%

Cover cuts applied:  29
Mixed integer rounding cuts applied:  4

Solution pool: 5 solutions saved.

MIP - Integer optimal solution:  Objective = 5.4100000000e+002
Solution time =    3.94 sec.  Iterations = 12275  Nodes = 473 (350)


Incumbent solution
Variable Name           Solution Value
Cmax                        541.000000
X_1_5                         1.000000
X_2_5                        -0.000000
X_2_11                        1.000000
X_3_14                        1.000000
X_4_9                         1.000000
X_5_4                         1.000000
X_6_4                         1.000000
X_7_3                         1.000000
X_8_10                        1.000000
X_9_17                        1.000000
X_10_20                       1.000000
X_11_12                       1.000000
X_12_8                        1.000000
X_13_9                        1.000000
X_14_9                        1.000000
X_15_11                       1.000000
X_16_12                       1.000000
X_17_15                       1.000000
X_18_2                        1.000000
X_18_6                       -0.000000
X_19_13                       1.000000
X_20_20                       1.000000
X_21_1                        1.000000
X_22_12                       1.000000
X_23_15                       1.000000
X_24_6                        1.000000
X_25_3                        1.000000
X_26_13                       1.000000
X_27_17                       1.000000
X_28_1                        1.000000
X_28_7                       -0.000000
X_29_6                        1.000000
X_30_4                        1.000000
X_31_3                        1.000000
X_32_12                       1.000000
X_33_13                       1.000000
X_34_15                       1.000000
X_35_4                        1.000000
X_36_18                       1.000000
X_37_19                       1.000000
X_38_6                        1.000000
X_38_10                      -0.000000
X_39_14                       1.000000
X_40_16                       1.000000
X_41_10                       1.000000
X_42_3                        1.000000
X_43_8                        1.000000
X_44_19                       1.000000
X_45_2                        1.000000
X_46_15                       0.000000
X_46_16                       1.000000
X_47_19                       1.000000
X_48_1                       -0.000000
X_48_14                       1.000000
X_49_7                        1.000000
X_50_13                       1.000000
X_51_1                       -0.000000
X_51_17                       1.000000
X_52_8                        1.000000
X_53_15                       1.000000
X_54_1                        1.000000
X_55_3                        1.000000
X_56_8                        1.000000
X_57_17                       1.000000
X_58_11                       1.000000
X_59_2                        1.000000
X_60_5                        1.000000
X_61_1                        1.000000
X_61_6                       -0.000000
X_62_5                        1.000000
X_63_20                       1.000000
X_64_9                        1.000000
X_65_20                       1.000000
X_66_20                       1.000000
X_67_16                       1.000000
X_68_19                       1.000000
X_69_2                       -0.000000
X_69_5                        1.000000
X_70_9                        1.000000
X_71_18                       1.000000
X_72_10                       0.000000
X_72_19                       1.000000
X_73_2                        1.000000
X_74_7                        1.000000
X_75_5                        1.000000
X_76_18                       1.000000
X_76_19                       0.000000
X_77_14                       1.000000
X_78_17                       1.000000
X_79_1                        1.000000
X_79_14                      -0.000000
X_80_6                        1.000000
X_81_6                        1.000000
X_82_8                        1.000000
X_83_7                        1.000000
X_84_16                       1.000000
X_84_17                      -0.000000
X_85_13                       1.000000
X_86_18                       1.000000
X_87_10                       1.000000
X_88_18                       1.000000
X_89_11                       1.000000
X_90_2                        1.000000
X_91_12                       1.000000
X_92_7                        1.000000
X_93_4                        1.000000
X_94_10                       1.000000
X_94_11                      -0.000000
X_95_16                       1.000000
X_96_7                        1.000000
X_96_11                      -0.000000
X_97_14                       1.000000
X_98_15                       1.000000
X_98_18                       0.000000
X_99_11                       1.000000
X_100_10                      1.000000
All other variables in the range 1-2001 are 0.
